data;


param d:= 100;
param r:=5;
param p:=0.600000;
param M:=1000;
param U:=
         1         1        6.337436e-01
         2         1       -3.058325e-01
         3         1        2.266903e+00
         4         1        4.210670e-01
         5         1       -7.289338e-02
         6         1       -1.773961e-01
         7         1        1.486279e+00
         8         1        1.360670e-01
         9         1       -6.296773e-01
        10         1        1.207791e+00
        11         1        4.294265e-01
        12         1       -1.879294e+00
        13         1        4.921808e-02
        14         1        5.935257e-01
        15         1        5.445911e-01
        16         1        8.794146e-01
        17         1        4.058304e-01
        18         1       -1.693289e+00
        19         1        5.917260e-01
        20         1       -1.301533e+00
        21         1        4.749159e-01
        22         1       -7.311448e-01
        23         1        1.248801e+00
        24         1        1.064612e+00
        25         1        1.117081e+00
        26         1        8.461301e-01
        27         1        1.248880e+00
        28         1       -2.560451e+00
        29         1       -1.777990e-01
        30         1        3.787241e-01
        31         1       -3.266952e-01
        32         1        4.578963e-01
        33         1       -9.957855e-01
        34         1       -1.775137e-01
        35         1       -9.998042e-01
        36         1       -3.300154e-01
        37         1        1.752346e+00
        38         1        6.514372e-01
        39         1        2.585019e+00
        40         1       -1.447504e+00
        41         1       -6.339635e-01
        42         1       -9.191604e-02
        43         1        5.018609e-01
        44         1        3.632797e-02
        45         1        4.746886e-01
        46         1        1.218460e-01
        47         1        1.411539e+00
        48         1       -2.815974e-01
        49         1        1.250881e+00
        50         1       -1.156795e+00
        51         1        6.815716e-01
        52         1        7.271343e-01
        53         1       -6.807885e-02
        54         1       -7.562534e-01
        55         1       -1.394360e+00
        56         1        1.763932e+00
        57         1       -1.289075e-01
        58         1       -1.307278e-03
        59         1        6.186561e-01
        60         1       -6.400493e-02
        61         1       -5.508046e-01
        62         1        8.603371e-01
        63         1        3.018763e-01
        64         1       -1.063268e+00
        65         1        1.272864e+00
        66         1        1.177086e+00
        67         1        7.963743e-01
        68         1        1.082225e+00
        69         1       -8.397108e-01
        70         1        1.244211e-01
        71         1       -2.003679e+00
        72         1       -1.379925e+00
        73         1        3.576202e-01
        74         1       -6.496801e-01
        75         1        3.133050e-01
        76         1        3.941627e-01
        77         1        2.871794e-01
        78         1        6.934104e-01
        79         1        9.272223e-01
        80         1        4.691360e-01
        81         1       -8.751421e-01
        82         1        3.177852e+00
        83         1        9.459935e-01
        84         1        4.605272e-01
        85         1        6.615294e-01
        86         1        8.489589e-01
        87         1       -1.308790e+00
        88         1       -1.819766e+00
        89         1       -1.672384e+00
        90         1        7.007204e-01
        91         1       -4.750392e-02
        92         1        1.014990e-02
        93         1       -5.925852e-01
        94         1        1.359482e+00
        95         1       -1.107213e+00
        96         1       -1.120453e+00
        97         1       -6.096586e-01
        98         1       -9.800591e-01
        99         1       -3.473181e-01
       100         1       -6.254785e-01
         1         2       -8.338323e-01
         2         2       -6.794738e-01
         3         2        1.158430e+00
         4         2        5.434014e-01
         5         2        1.660858e+00
         6         2       -8.938920e-01
         7         2       -5.189925e-01
         8         2       -1.155726e+00
         9         2        1.038858e-01
        10         2        1.002291e+00
        11         2       -5.332511e-01
        12         2       -1.451234e+00
        13         2        4.908277e-01
        14         2        1.561440e+00
        15         2       -6.933170e-01
        16         2        6.480835e-01
        17         2       -2.268872e+00
        18         2        3.076069e-01
        19         2        1.149065e+00
        20         2        8.863135e-01
        21         2        6.174978e-01
        22         2       -9.540274e-01
        23         2       -4.750201e-01
        24         2        1.317183e-01
        25         2        2.031851e-01
        26         2       -8.329904e-01
        27         2        1.101294e+00
        28         2       -1.017558e+00
        29         2       -1.810798e-02
        30         2       -1.608520e-01
        31         2       -2.203297e-01
        32         2        8.713296e-02
        33         2       -6.394039e-01
        34         2       -2.809114e-01
        35         2        9.432905e-02
        36         2        1.499125e+00
        37         2       -1.403067e-01
        38         2        8.802492e-02
        39         2       -1.903648e-01
        40         2       -8.296458e-01
        41         2       -6.578019e-01
        42         2        2.057212e+00
        43         2       -8.223068e-03
        44         2       -1.029498e+00
        45         2       -1.559983e+00
        46         2       -1.032914e+00
        47         2       -8.700420e-01
        48         2       -1.605727e+00
        49         2        1.089537e+00
        50         2       -1.069243e+00
        51         2       -7.331396e-02
        52         2       -2.762726e-01
        53         2       -1.447411e+00
        54         2        1.360518e-01
        55         2       -1.804825e-01
        56         2       -8.671464e-02
        57         2        3.305383e-02
        58         2        8.407551e-01
        59         2       -1.024444e+00
        60         2       -1.340479e+00
        61         2       -1.786945e-01
        62         2        6.743450e-01
        63         2       -1.816866e-01
        64         2       -1.653177e+00
        65         2        1.682473e-01
        66         2        3.479690e-01
        67         2        2.628179e-02
        68         2        6.813775e-01
        69         2       -1.335352e+00
        70         2        1.853839e+00
        71         2        7.974713e-01
        72         2       -5.804565e-01
        73         2       -5.238833e-01
        74         2        1.050557e+00
        75         2        6.945442e-01
        76         2       -1.391910e+00
        77         2        6.286626e-01
        78         2       -1.707756e+00
        79         2       -4.399660e-01
        80         2       -9.297069e-01
        81         2       -3.255765e-01
        82         2       -1.206939e+00
        83         2        1.062361e+00
        84         2       -5.448439e-01
        85         2       -3.379756e-01
        86         2        7.547355e-02
        87         2        4.716310e-01
        88         2        5.526942e-01
        89         2        8.143445e-01
        90         2       -8.535771e-01
        91         2        6.884384e-01
        92         2       -1.860605e-01
        93         2       -2.276962e+00
        94         2        1.587951e+00
        95         2       -1.091242e+00
        96         2       -5.519009e-01
        97         2       -9.771820e-01
        98         2        6.202016e-01
        99         2        1.303564e+00
       100         2        9.262949e-01
         1         3       -2.316214e+00
         2         3       -4.499706e-01
         3         3        2.008610e+00
         4         3       -7.630360e-03
         5         3       -2.478858e-01
         6         3        9.745247e-01
         7         3       -4.726957e-01
         8         3        1.497657e+00
         9         3        5.502094e-01
        10         3       -5.863229e-01
        11         3       -4.349991e-01
        12         3        1.205038e+00
        13         3       -1.064880e-01
        14         3       -1.502192e+00
        15         3       -5.289807e-01
        16         3        6.070237e-01
        17         3       -6.471743e-01
        18         3       -1.584689e+00
        19         3        1.239248e+00
        20         3        1.224579e+00
        21         3        6.367861e-01
        22         3        1.654749e+00
        23         3        1.575349e-01
        24         3        2.575673e+00
        25         3        6.409065e-01
        26         3       -6.065799e-01
        27         3        1.425291e+00
        28         3       -9.432299e-01
        29         3        3.797587e-01
        30         3       -3.987218e-01
        31         3       -3.883945e-01
        32         3        2.654142e+00
        33         3        7.293198e-01
        34         3        9.097606e-02
        35         3        6.024142e-01
        36         3       -1.319939e+00
        37         3        1.436826e+00
        38         3       -6.225181e-01
        39         3       -3.445374e-01
        40         3       -1.511657e+00
        41         3       -2.108294e+00
        42         3        8.525174e-01
        43         3        1.023500e+00
        44         3        1.252390e+00
        45         3        7.747367e-01
        46         3       -3.043638e-01
        47         3        1.425059e-01
        48         3       -1.608324e-01
        49         3        3.400511e-01
        50         3        5.837513e-01
        51         3       -1.051856e+00
        52         3       -2.584205e+00
        53         3       -9.483392e-03
        54         3        1.510190e+00
        55         3       -8.919753e-01
        56         3       -7.290050e-01
        57         3        5.550332e-01
        58         3       -7.572586e-01
        59         3        2.754995e-02
        60         3       -3.866165e-01
        61         3        2.419542e-01
        62         3        1.117427e+00
        63         3       -2.664644e-01
        64         3        1.757008e+00
        65         3       -2.179026e-01
        66         3        2.127621e+00
        67         3        5.015980e-01
        68         3        7.275727e-02
        69         3       -2.988948e-01
        70         3        1.268065e+00
        71         3        7.169642e-01
        72         3        4.576103e-01
        73         3        3.011782e-01
        74         3        4.596768e-01
        75         3        1.357152e+00
        76         3       -1.253817e+00
        77         3        1.617067e+00
        78         3        1.061990e+00
        79         3       -1.226351e+00
        80         3       -1.531214e+00
        81         3        4.608409e-01
        82         3        7.097840e-01
        83         3       -1.198324e+00
        84         3       -5.586058e-01
        85         3        6.106374e-01
        86         3        3.877782e-02
        87         3       -3.064552e-01
        88         3       -2.635729e+00
        89         3        4.865665e-01
        90         3       -9.026580e-01
        91         3       -3.724817e-01
        92         3        6.252820e-01
        93         3        7.668041e-01
        94         3        6.751138e-01
        95         3       -2.002592e-01
        96         3        2.389813e-01
        97         3        1.325596e+00
        98         3       -7.686263e-01
        99         3       -1.191768e+00
       100         3        1.375530e-01
         1         4       -4.210661e-01
         2         4        6.032688e-01
         3         4        1.336438e+00
         4         4       -2.999749e-01
         5         4       -5.955347e-01
         6         4        2.638847e-01
         7         4       -6.835544e-01
         8         4       -1.297562e+00
         9         4        1.563318e+00
        10         4        9.741490e-01
        11         4       -2.001508e-01
        12         4        5.858995e-01
        13         4        1.087597e-02
        14         4       -1.658978e+00
        15         4       -1.385096e+00
        16         4        6.547264e-01
        17         4       -6.892861e-01
        18         4        7.529449e-02
        19         4        2.021268e+00
        20         4        1.229830e+00
        21         4        1.177473e+00
        22         4        1.099151e+00
        23         4        3.731182e-01
        24         4       -1.073936e+00
        25         4       -1.053355e+00
        26         4       -7.375920e-01
        27         4        1.215019e-01
        28         4       -8.667378e-01
        29         4        1.340682e-01
        30         4       -3.981309e-01
        31         4        1.428994e+00
        32         4       -1.814823e+00
        33         4       -2.250018e-01
        34         4       -6.469629e-02
        35         4        7.215609e-01
        36         4       -1.210524e+00
        37         4        1.470695e+00
        38         4       -1.341020e+00
        39         4       -9.633951e-01
        40         4       -5.525170e-01
        41         4       -1.786465e-01
        42         4       -5.158331e-03
        43         4        3.235092e-01
        44         4        7.567339e-01
        45         4        2.068631e-01
        46         4        2.732100e+00
        47         4       -1.544744e+00
        48         4       -1.906175e+00
        49         4       -7.533397e-01
        50         4        9.816513e-01
        51         4        7.577150e-01
        52         4        4.085058e-01
        53         4       -6.616768e-01
        54         4        9.613956e-01
        55         4       -2.931264e-01
        56         4        1.689264e+00
        57         4        6.020198e-01
        58         4        9.361825e-01
        59         4        4.718088e-01
        60         4       -6.925243e-01
        61         4        1.300744e+00
        62         4       -1.393946e-01
        63         4       -5.749704e-01
        64         4        9.700312e-01
        65         4        1.071882e+00
        66         4        1.653988e+00
        67         4        2.401537e-02
        68         4       -1.210329e+00
        69         4        2.027831e+00
        70         4        1.425740e+00
        71         4        1.665580e+00
        72         4        1.213330e+00
        73         4       -1.562674e+00
        74         4       -3.838495e-01
        75         4        8.781961e-01
        76         4        1.131136e+00
        77         4       -3.002476e-01
        78         4       -1.082807e+00
        79         4       -3.596020e-02
        80         4       -1.541337e+00
        81         4        4.421757e-01
        82         4       -2.647416e-01
        83         4        6.247783e-01
        84         4        1.593436e+00
        85         4        1.105505e+00
        86         4        6.241761e-01
        87         4        1.321149e+00
        88         4       -3.480266e-01
        89         4       -5.918248e-01
        90         4        7.322869e-01
        91         4        1.772875e-01
        92         4       -5.005756e-01
        93         4        8.109332e-01
        94         4       -1.821759e+00
        95         4       -7.808211e-01
        96         4       -4.597143e-01
        97         4       -1.230339e+00
        98         4       -2.352116e+00
        99         4        1.384370e+00
       100         4        6.271019e-01
         1         5        1.957790e+00
         2         5        3.647045e-01
         3         5       -5.577292e-01
         4         5        3.297151e-01
         5         5        1.451083e-01
         6         5       -3.503149e-01
         7         5       -1.853784e+00
         8         5        5.632018e-01
         9         5       -5.902726e-01
        10         5       -4.348145e-01
        11         5       -3.910957e-01
        12         5       -1.793659e+00
        13         5        4.476971e-01
        14         5       -1.137833e-01
        15         5        7.391081e-01
        16         5        8.845186e-01
        17         5        8.130694e-01
        18         5       -2.944716e-01
        19         5        3.191512e-01
        20         5       -2.652805e+00
        21         5       -8.979366e-02
        22         5        4.488907e-02
        23         5       -8.648616e-01
        24         5        3.586917e-01
        25         5       -2.475106e+00
        26         5       -1.110814e+00
        27         5        4.538918e-01
        28         5       -7.862791e-02
        29         5        4.589866e-01
        30         5        1.795037e+00
        31         5        2.337134e-01
        32         5        8.677458e-01
        33         5       -2.026301e-01
        34         5       -9.014234e-02
        35         5        9.679289e-02
        36         5        4.763600e-01
        37         5        3.495327e-01
        38         5        4.252486e-01
        39         5       -1.136340e+00
        40         5       -1.769863e-01
        41         5        5.839349e-01
        42         5        2.220613e+00
        43         5        7.802358e-01
        44         5       -4.286892e-02
        45         5        6.539263e-01
        46         5       -3.155965e-01
        47         5        1.078612e+00
        48         5       -1.666974e+00
        49         5        8.627441e-01
        50         5        7.914782e-01
        51         5       -9.146525e-01
        52         5       -4.068413e-01
        53         5       -6.698673e-01
        54         5        3.202625e-01
        55         5        9.405722e-01
        56         5       -2.321040e+00
        57         5       -1.207683e+00
        58         5        1.262934e+00
        59         5        9.614107e-01
        60         5        9.761066e-01
        61         5        6.281567e-01
        62         5        2.283008e-01
        63         5        7.350150e-01
        64         5       -1.262892e+00
        65         5        1.645163e+00
        66         5        6.785399e-01
        67         5        1.218643e+00
        68         5        1.606436e-01
        69         5       -7.354785e-01
        70         5        9.975502e-01
        71         5        1.172262e+00
        72         5       -8.462606e-01
        73         5       -1.746449e+00
        74         5        8.873924e-01
        75         5        4.368826e-01
        76         5       -6.655491e-01
        77         5        1.902689e+00
        78         5        1.379891e-01
        79         5       -1.642697e+00
        80         5       -9.495203e-01
        81         5        2.455805e-01
        82         5        3.603928e-02
        83         5        6.761985e-01
        84         5        1.109152e-01
        85         5       -1.167473e+00
        86         5       -3.340826e-01
        87         5        3.224388e-01
        88         5        7.738132e-01
        89         5        5.780183e-01
        90         5        1.597109e+00
        91         5       -6.083600e-01
        92         5       -8.295704e-01
        93         5        2.653555e-01
        94         5       -7.311210e-01
        95         5        3.296036e-01
        96         5        6.260117e-01
        97         5       -2.707036e-02
        98         5        3.416780e-01
        99         5        5.315534e-01
       100         5        7.442010e-02
;

param theta:=
    1        1.312434e+00
    2        3.316828e+00
    3       -8.508924e-01
    4       -1.911682e+00
    5        9.106147e-01
;
param X_true:=
    1        2.554307e+00
    2       -3.006036e+00
    3        2.057755e+00
    4        3.159895e+00
    5        6.766352e+00
    6       -4.858185e+00
    7        2.763276e-01
    8       -2.116310e+00
    9       -4.384624e+00
   10        3.237269e+00
   11       -8.341113e-01
   12       -1.104548e+01
   13        2.017469e+00
   14        1.030224e+01
   15        2.167015e+00
   16        2.233117e+00
   17       -4.358752e+00
   18       -2.223530e-01
   19       -1.153444e-02
   20       -4.795853e+00
   21       -5.486086e-02
   22       -7.608347e+00
   23       -1.776008e+00
   24        1.910924e+00
   25        1.296628e+00
   26       -7.875540e-01
   27        4.288639e+00
   28       -4.309263e+00
   29       -4.920834e-01
   30        2.888980e+00
   31       -3.324180e+00
   32        3.009410e+00
   33       -3.887107e+00
   34       -1.113347e+00
   35       -2.830360e+00
   36        8.277218e+00
   37       -1.989163e+00
   38        4.609121e+00
   39        4.006884e+00
   40       -2.411965e+00
   41       -5.029225e-01
   42        7.989477e+00
   43       -2.449368e-01
   44       -5.919882e+00
   45       -4.957922e+00
   46       -8.426754e+00
   47        2.628904e+00
   48       -3.414113e+00
   49        7.337488e+00
   50       -6.771937e+00
   51       -7.226767e-01
   52        1.133321e+00
   53       -4.400780e+00
   54       -3.321829e+00
   55       -2.227973e-01
   56       -2.508447e+00
   57       -2.679978e+00
   58        2.610060e+00
   59       -2.695205e+00
   60       -2.064901e+00
   61       -3.485599e+00
   62        2.843951e+00
   63        1.693206e+00
   64       -1.134622e+01
   65        1.940119e+00
   66       -1.688533e+00
   67        1.685417e+00
   68        6.021687e+00
   69       -9.863820e+00
   70        3.568269e+00
   71       -2.716589e+00
   72       -7.262197e+00
   73       -2.048954e-01
   74        3.880594e+00
   75        3.856241e-01
   76       -5.705065e+00
   77        3.295139e+00
   78       -3.575387e+00
   79       -6.636655e-01
   80        1.031701e+00
   81       -3.434407e+00
   82       -4.187788e-02
   83        5.242085e+00
   84       -3.811081e+00
   85       -4.112365e+00
   86       -1.046510e-01
   87       -1.994391e+00
   88        3.093269e+00
   89        1.707758e+00
   90       -1.074326e+00
   91        1.663770e+00
   92       -8.814988e-01
   93       -1.026553e+01
   94        9.363446e+00
   95       -3.240169e+00
   96       -1.988289e+00
   97       -2.845299e+00
   98        6.338268e+00
   99        2.727147e+00
  100        1.117959e+00
;
param X:=
    1        6.821042e-01
    2        2.004941e+00
    3        2.057755e+00
    4        3.159895e+00
    5        2.886591e-01
    6       -4.858185e+00
    7       -1.305468e+00
    8       -5.401916e-02
    9       -4.384624e+00
   10       -3.224819e-01
   11       -8.341113e-01
   12        1.035535e-01
   13        5.669597e-01
   14        1.030224e+01
   15        2.336620e-01
   16        1.389370e-01
   17       -4.358752e+00
   18       -2.084745e-01
   19       -1.153444e-02
   20        3.230389e-01
   21        7.060391e-01
   22       -4.826932e-01
   23        9.504475e-01
   24       -7.951514e-01
   25        1.296628e+00
   26       -7.875540e-01
   27        5.763010e-02
   28       -4.309263e+00
   29        5.098473e-01
   30        2.888980e+00
   31        1.140890e+00
   32       -6.009557e-01
   33        5.561538e-01
   34        1.429191e+00
   35        2.693206e+00
   36        4.151283e-01
   37       -1.989163e+00
   38        6.329596e-01
   39        4.006884e+00
   40       -2.411965e+00
   41        5.794275e-01
   42        7.989477e+00
   43        5.432033e-01
   44       -5.919882e+00
   45       -4.957922e+00
   46        7.945749e-01
   47        5.989134e-01
   48       -4.772938e-01
   49        7.337488e+00
   50        6.944492e-01
   51       -7.226767e-01
   52        1.133321e+00
   53        2.414826e+00
   54       -1.425012e+00
   55        1.983374e-01
   56        4.485076e-01
   57       -1.933599e+00
   58        2.610060e+00
   59       -5.788680e-01
   60       -2.064901e+00
   61       -1.652278e+00
   62        7.841791e-01
   63        5.742332e-01
   64       -1.134622e+01
   65        1.940119e+00
   66       -1.688533e+00
   67        1.685417e+00
   68       -1.008030e-01
   69       -9.863820e+00
   70        3.568269e+00
   71       -9.016759e-01
   72       -7.262197e+00
   73        1.383347e-01
   74        3.880594e+00
   75        4.859164e-01
   76       -1.262455e+00
   77        1.248433e+00
   78        1.073577e+00
   79       -6.636655e-01
   80        1.813499e+00
   81        8.602092e-01
   82       -2.869050e-01
   83        9.544099e-01
   84       -5.262850e-01
   85       -1.249641e+00
   86       -7.516730e-01
   87       -5.875985e-01
   88        3.093269e+00
   89       -2.480048e-01
   90       -1.074326e+00
   91        1.663770e+00
   92       -8.814988e-01
   93        3.653987e-01
   94        9.363446e+00
   95       -3.240169e+00
   96        6.347356e-01
   97       -2.845299e+00
   98        6.338268e+00
   99       -7.920616e-01
  100       -1.347473e+00
;
param outliervec:=
    1    1
    2    1
    3    0
    4    0
    5    1
    6    0
    7    1
    8    1
    9    0
   10    1
   11    0
   12    1
   13    1
   14    0
   15    1
   16    1
   17    0
   18    1
   19    0
   20    1
   21    1
   22    1
   23    1
   24    1
   25    0
   26    0
   27    1
   28    0
   29    1
   30    0
   31    1
   32    1
   33    1
   34    1
   35    1
   36    1
   37    0
   38    1
   39    0
   40    0
   41    1
   42    0
   43    1
   44    0
   45    0
   46    1
   47    1
   48    1
   49    0
   50    1
   51    0
   52    0
   53    1
   54    1
   55    1
   56    1
   57    1
   58    0
   59    1
   60    0
   61    1
   62    1
   63    1
   64    0
   65    0
   66    0
   67    0
   68    1
   69    0
   70    0
   71    1
   72    0
   73    1
   74    0
   75    1
   76    1
   77    1
   78    1
   79    0
   80    1
   81    1
   82    1
   83    1
   84    1
   85    1
   86    1
   87    1
   88    0
   89    1
   90    0
   91    0
   92    0
   93    1
   94    0
   95    0
   96    1
   97    0
   98    0
   99    1
  100    1
;